
List of user-set options:

                                    Name   Value                used
                           compl_inf_tol = 1                     yes
                         constr_viol_tol = 1                     yes
                            dual_inf_tol = 1000                  yes
                           linear_solver = ma97                  yes
                              ma86_small = 1e-30                  no
                                  ma86_u = 0.0001                 no
                              ma97_order = best                  yes
                              ma97_small = 1e-30                 yes
                            ma97_switch1 = at_start              yes
                            ma97_switch2 = od_hd_reuse           yes
                                  ma97_u = 1e-06                 yes
                               ma97_umax = 0.5                   yes
                                max_iter = 1000                  yes
                    max_refinement_steps = 20                    yes
                    min_refinement_steps = 5                     yes
                                 mu_init = 1e-06                 yes
           mu_superlinear_decrease_power = 1.25                  yes
                   nlp_scaling_min_value = 1e-08                 yes
                        option_file_name = Preset_Case:_25_pf.opt  yes
                             output_file = ./tmp/Preset_Case:_25_pf.output  yes
                      print_user_options = yes                   yes
        required_infeasibility_reduction = 1                      no
                                     tol = 1e-08                 yes
                   warm_start_bound_frac = 1e-20                 yes
                   warm_start_bound_push = 1e-20                 yes
                   warm_start_init_point = yes                   yes
              warm_start_mult_bound_push = 1e-20                 yes
                warm_start_mult_init_max = 1e+40                 yes
             warm_start_slack_bound_frac = 1e-20                 yes
             warm_start_slack_bound_push = 1e-20                 yes

******************************************************************************
This program contains Ipopt, a library for large-scale nonlinear optimization.
 Ipopt is released as open source code under the Eclipse Public License (EPL).
         For more information visit http://projects.coin-or.org/Ipopt
******************************************************************************

This is Ipopt version 3.12.10, running with linear solver ma97.

Number of nonzeros in equality constraint Jacobian...:   123422
Number of nonzeros in inequality constraint Jacobian.:      213
Number of nonzeros in Lagrangian Hessian.............:    49047

Total number of variables............................:    31589
                     variables with only lower bounds:    12912
                variables with lower and upper bounds:    15128
                     variables with only upper bounds:        0
Total number of equality constraints.................:    31483
Total number of inequality constraints...............:       25
        inequality constraints with only lower bounds:        4
   inequality constraints with lower and upper bounds:        0
        inequality constraints with only upper bounds:       21

iter    objective    inf_pr   inf_du lg(mu)  ||d||  lg(rg) alpha_du alpha_pr  ls
   0 -6.3833527e+00 4.04e-03 1.20e-06  -6.0 0.00e+00    -  0.00e+00 0.00e+00   0
   1 -6.3833526e+00 3.69e-03 4.94e+01  -6.0 2.95e+02    -  2.19e-01 9.15e-04h  1
   2 -6.3833284e+00 8.98e-03 4.71e+01  -6.0 2.81e+02    -  1.56e-01 4.04e-01f  1
   3 -6.3832902e+00 7.84e-03 3.21e+01  -6.0 1.38e+02    -  4.52e-01 3.58e-01f  1
   4 -6.3830077e+00 5.09e-03 1.51e+00  -6.0 6.88e+01    -  9.98e-01 1.00e+00f  1
   5 -6.3830614e+00 8.71e-06 3.42e-01  -6.0 5.16e+00    -  1.00e+00 1.00e+00h  1
   6 -6.3830874e+00 7.83e-07 5.15e-02  -6.0 2.05e+00    -  1.00e+00 1.00e+00h  1
   7 -6.3830933e+00 4.91e-08 2.50e-03  -6.0 4.65e-01    -  1.00e+00 1.00e+00h  1
   8 -6.3830936e+00 2.87e-10 7.32e-06  -6.0 2.52e-02    -  1.00e+00 1.00e+00h  1
   9 -6.3832846e+00 4.55e-03 1.68e+02  -7.5 1.79e+02    -  9.57e-01 3.77e-01f  1
iter    objective    inf_pr   inf_du lg(mu)  ||d||  lg(rg) alpha_du alpha_pr  ls
  10 -6.3833746e+00 1.47e-02 2.03e+01  -7.5 1.48e+02    -  1.00e+00 8.86e-01h  1
  11 -6.3833514e+00 3.22e-04 4.28e-02  -7.5 2.46e+01    -  1.00e+00 1.00e+00h  1
  12 -6.3833507e+00 7.65e-07 6.54e-06  -7.5 4.76e-01    -  1.00e+00 1.00e+00h  1
  13 -6.3833507e+00 4.28e-10 2.37e-11  -7.5 5.55e-04    -  1.00e+00 1.00e+00h  1
  14 -6.3833524e+00 3.70e-05 1.12e+00  -9.0 8.89e+00    -  9.49e-01 8.27e-01h  1
  15 -6.3833527e+00 1.71e-06 1.80e-04  -9.0 1.62e+00    -  1.00e+00 1.00e+00f  1
  16 -6.3833527e+00 2.81e-10 4.04e-09  -9.0 1.52e-03    -  1.00e+00 1.00e+00h  1

Number of Iterations....: 16

                                   (scaled)                 (unscaled)
Objective...............:  -4.9869942814724624e+00   -6.3833526802847516e+00
Dual infeasibility......:   4.0358984617857906e-09    5.1659500310858117e-09
Constraint violation....:   2.8078972187737389e-10    2.8078972187737389e-10
Complementarity.........:   1.1633216470425054e-09    1.4890517082144069e-09
Overall NLP error.......:   4.0358984617857906e-09    5.1659500310858117e-09


Number of objective function evaluations             = 17
Number of objective gradient evaluations             = 17
Number of equality constraint evaluations            = 17
Number of inequality constraint evaluations          = 17
Number of equality constraint Jacobian evaluations   = 17
Number of inequality constraint Jacobian evaluations = 17
Number of Lagrangian Hessian evaluations             = 16
Total CPU secs in IPOPT (w/o function evaluations)   =     22.162
Total CPU secs in NLP function evaluations           =      0.399

EXIT: Optimal Solution Found.
